
Gurobi 6.5.2 (win64) logging started 07/23/16 02:36:32


Gurobi 6.5.2 (win64) logging started 07/23/16 02:36:32

Optimize a model with 6721 rows, 1020 columns and 15477 nonzeros
Coefficient statistics:
  Matrix range    [4e-06, 1e+03]
  Objective range [1e+00, 1e+00]
  Bounds range    [1e+00, 1e+00]
  RHS range       [1e+00, 1e+03]
Found heuristic solution: objective 1786.12
Presolve removed 6698 rows and 996 columns
Presolve time: 0.00s
Presolved: 23 rows, 24 columns, 70 nonzeros
Found heuristic solution: objective 933.2369574
Variable types: 24 continuous, 0 integer (0 binary)

Root relaxation: objective 1.720421e+02, 16 iterations, 0.00 seconds

    Nodes    |    Current Node    |     Objective Bounds      |     Work
 Expl Unexpl |  Obj  Depth IntInf | Incumbent    BestBd   Gap | It/Node Time

*    0     0               0     172.0421469  172.04215  0.00%     -    0s

Explored 0 nodes (16 simplex iterations) in 0.01 seconds
Thread count was 8 (of 8 available processors)

Optimal solution found (tolerance 1.00e-04)
Best objective 1.720421468823e+02, best bound 1.720421468823e+02, gap 0.0%

Wrote requested result file 'H2\instance7\\Results7EC_Sol6.lp'

